
  22    4
  10   10   10   10

   0   0   0   0   0   5 2 3 5 6 9 
   6  10  10  10  10   3 13 10 4 
   7  10  10  10  10   4 21 20 13 8 
   6  10  10  10  10   2 12 7 
   4  10  10  10  10   5 21 20 19 13 11 
   3  10  10  10  10   2 20 8 
  10  10  10  10  10   4 21 20 19 11 
  10  10  10  10  10   3 19 12 11 
   3  10  10  10  10   3 17 14 13 
   4  10  10  10  10   4 19 17 15 14 
   1  10  10  10  10   3 17 15 14 
   2  10  10  10  10   3 18 15 14 
   7  10  10  10  10   2 18 15 
   3  10  10  10  10   1 16 
   1  10  10  10  10   1 22
   6  10  10  10  10   1 22
  10  10  10  10  10   1 22
   9  10  10  10  10   1 22
   7  10  10  10  10   1 22
   1  10  10  10  10   1 22
   3  10  10  10  10   1 22
   0   0   0   0   0   0 
